************************************************************************
file with basedata            : md380_.bas
initial value random generator: 167079757
************************************************************************
projects                      :  1
jobs (incl. supersource/sink ):  22
horizon                       :  150
RESOURCES
  - renewable                 :  2   R
  - nonrenewable              :  2   N
  - doubly constrained        :  0   D
************************************************************************
PROJECT INFORMATION:
pronr.  #jobs rel.date duedate tardcost  MPM-Time
    1     20      0       16       12       16
************************************************************************
PRECEDENCE RELATIONS:
jobnr.    #modes  #successors   successors
   1        1          3           2   3   4
   2        3          2           8  13
   3        3          3           5  13  14
   4        3          3           6   9  11
   5        3          3           7  10  18
   6        3          3          12  16  19
   7        3          3           9  11  15
   8        3          3          11  15  16
   9        3          1          21
  10        3          1          20
  11        3          1          21
  12        3          2          13  17
  13        3          1          21
  14        3          3          15  16  18
  15        3          1          19
  16        3          1          17
  17        3          1          20
  18        3          2          19  20
  19        3          1          22
  20        3          1          22
  21        3          1          22
  22        1          0        
************************************************************************
REQUESTS/DURATIONS:
jobnr. mode duration  R 1  R 2  N 1  N 2
------------------------------------------------------------------------
  1      1     0       0    0    0    0
  2      1     5       0    4    8    9
         2    10       0    4    7    4
         3    10       0    4    6    6
  3      1     2       4    0    8    3
         2     3       0    5    8    2
         3     9       3    0    7    1
  4      1     1       0    3    7   10
         2     1       4    0    7    8
         3     6       3    0    6    5
  5      1     2       4    0    6    7
         2     9       0    7    6    2
         3     9       0    7    5    3
  6      1     2       0    2    6    4
         2     5       0    2    5    3
         3     5       0    2    6    2
  7      1     2       3    0    4    3
         2     4       0    5    4    3
         3     5       0    4    3    2
  8      1     3       0    5   10    2
         2     5       0    5    9    1
         3     5       8    0    9    1
  9      1     2       9    0    9    9
         2     2       6    0   10    8
         3     8       0    3    8    5
 10      1     1       0    8    5    4
         2     4       3    0    4    3
         3    10       0    7    4    3
 11      1     2       0    2   10    7
         2     7       0    1    8    7
         3     9       0    1    8    5
 12      1     1      10    0    4   10
         2     7      10    0    2    9
         3    10       0    7    2    9
 13      1     1       4    0    5    8
         2     3       3    0    5    6
         3     6       3    0    1    5
 14      1     2       8    0   10    5
         2     3       3    0    8    4
         3     6       3    0    7    3
 15      1     2       5    0    7    9
         2     7       0    4    4    8
         3     9       0    2    4    5
 16      1     3       0   10    7   10
         2     4       0    4    4   10
         3     5       3    0    2   10
 17      1     1       9    0    9    8
         2     6       7    0    4    5
         3     6       0    1    5    6
 18      1     2       0    4    9   10
         2     8       0    3    9   10
         3     9       0    3    9    9
 19      1     1       0    9    2    5
         2     6       6    0    2    4
         3     9       3    0    2    4
 20      1     4       2    0    6    3
         2     5       0    5    5    2
         3     6       0    2    2    2
 21      1     3       8    0    9    9
         2     5       0    2    5    8
         3     8       4    0    5    4
 22      1     0       0    0    0    0
************************************************************************
RESOURCEAVAILABILITIES:
  R 1  R 2  N 1  N 2
   22   24  142  135
************************************************************************
MAXIMAL LAGS:
from  to  type  delay
    1   12   ES      0
    1    2   ES      0
    2   12   ES      0
    1    3   ES      0
    3   12   ES      0
    1    4   ES      0
    4   12   ES      0
    1    5   ES      0
    5   12   ES      0
    1    6   ES      0
    6   12   ES      0
    1    7   ES      0
    7   12   ES      0
    1    8   ES      0
    8   12   ES      0
    1    9   ES      0
    9   12   ES      0
    1   10   ES      0
   10   12   ES      0
    1   11   ES      0
   11   12   ES      0
    1   12   ES      0
    2    8   SS      3
    2    8   SE    -11
    2    8   ES     -8
    2    8   EE     -9
    2   13   SS     -3
    2   13   SE      9
   13    2   SE      0
    2   13   ES      0
    2   13   EE    -10
    3    5   SS     11
    3    5   SE      0
    3    5   ES      7
    3    5   EE     11
    3   13   SS     12
    3   13   SE    -11
    3   13   ES     -3
    3   13   EE      3
    3   14   SS      9
    3   14   SE      0
    3   14   ES    -10
    3   14   EE    -11
    4    6   SS     -8
    4    6   SE      7
    4    6   ES      1
    4    6   EE      9
    4    9   SS     12
    4    9   SE      8
    4    9   ES      8
    4    9   EE     -1
    4   11   SS     -4
    4   11   SE     -3
    4   11   ES    -10
    4   11   EE      6
    5    7   SS     11
    5    7   SE    -11
    5    7   ES     12
    5    7   EE     -4
    5   10   SS     -6
    5   10   SE      3
    5   10   ES      2
    5   10   EE    -11
    5   18   SS     -7
    5   18   SE      7
    5   18   ES      9
    5   18   EE      1
    6   16   SS      2
    6   16   SE    -11
    6   16   ES     -2
    6   16   EE    -12
    6   19   SS     -6
    6   19   SE     -2
    6   19   ES      1
    6   19   EE     12
    7    9   SS     -7
    7    9   SE     -5
    7    9   ES      2
    7    9   EE     -7
    7   11   SS     12
    7   11   SE     -4
    7   11   ES      0
    7   11   EE      9
    7   15   SS     -4
    7   15   SE     12
    7   15   ES     -2
    7   15   EE      0
    8   11   SS    -12
    8   11   SE     -3
    8   11   ES      5
    8   11   EE     12
    8   15   SS     -1
    8   15   SE    -10
    8   15   ES    -10
    8   15   EE      6
    8   16   SS      6
    8   16   SE    -11
    8   16   ES      0
    8   16   EE     -2
    9   21   SS     12
    9   21   SE      0
    9   21   ES     11
    9   21   EE     -5
   10   20   SS     -7
   10   20   SE     -7
   10   20   ES      9
   10   20   EE      0
   11   21   SS      3
   11   21   SE      7
   11   21   ES    -10
   11   21   EE     12
   12   13   SS     -9
   12   13   SE    -10
   12   13   ES      3
   12   13   EE      4
   12   17   SS     -2
   12   17   SE     -9
   12   17   ES     -7
   12   17   EE     -1
   13   21   SS      7
   13   21   SE     10
   13   21   ES     -7
   13   21   EE      9
   14   15   SS      2
   14   15   SE     -7
   14   15   ES      6
   14   15   EE    -10
   14   16   SS      0
   14   16   SE      7
   14   16   ES     -3
   14   16   EE     -8
   14   18   SS     12
   14   18   SE     -8
   14   18   ES     -8
   14   18   EE      7
   15   19   SS     -8
   15   19   SE     -1
   15   19   ES     -5
   15   19   EE      5
   16   17   SS     -4
   16   17   SE    -10
   16   17   ES      5
   16   17   EE      2
   17   20   SS     -2
   17   20   SE      3
   17   20   ES      0
   17   20   EE    -10
   18   19   SS      3
   18   19   SE      0
   18   19   ES     -1
   18   19   EE      9
   18   20   SS      3
   18   20   SE     -7
   18   20   ES     -7
   18   20   EE      9
   19   22   SS     -4
   19   22   SE     -1
   19   22   ES      4
   19   22   EE      4
   20   22   SS     -5
   20   22   SE      1
   20   22   ES      1
   20   22   EE    -12
   21   22   SS      3
   21   22   SE      6
   21   22   ES      5
   21   22   EE     -6
************************************************************************
